p cnf 15 27
-8 10 0
-8 0
4 13 0
2 0
4 -10 -9 0
-15 7 -4 -9 0
-10 0
-14 7 0
-8 14 -10 0
-8 2 5 -2 0
7 0
11 12 13 0
8 -8 -3 -7 0
-15 0
8 -7 11 -10 0
3 0
8 11 -3 15 0
-11 7 0
-15 -10 0
-7 -13 6 -5 0
3 0
13 -1 0
12 -10 7 0
1 -6 13 6 0
8 -13 -10 0
-15 -13 13 0
-7 2 3 0
